p cnf 14 22
14 13 10 0
14 -10 9 0
14 10 6 0
-14 9 -4 0
14 -6 1 0
13 -10 -2 0
13 -10 2 0
13 8 -7 0
-13 6 -3 0
12 11 -7 0
-12 10 -9 0
-12 9 -7 0
11 9 3 0
-11 7 -5 0
11 4 2 0
-11 -3 -2 0
9 8 -7 0
-8 7 -4 0
8 7 2 0
8 7 1 0
-7 -2 1 0
-5 -3 1 0
